100 22107722
96 13 79 19 68 28 99 7 6 37 42 29 97 76 61 89 84 74 24 64 55 59 43 48 71 9 23 91 16 100 50 75 70 5 92 67 14 27 60 58 65 36 33 20 95 38 15 77 4 47 12 66 18 93 11 57 45 52 85 1 81 56 53 26 31 39 90 69 94 80 17 72 35 41 46 83 87 32 8 40 51 10 86 82 3 21 73 54 25 44 22 88 34 98 62 30 2 78 49 63 
